122
104
143
70
66
95
55
67
54
116
33
116
141
96
93
89
95
152
54
81
77
75
0
114
0
42
93
239
119
95
77
157
79
129
141
112
129
75
62
88
174
62
44
47
121
66
61
78
90
68
123
64
88
66
62
59
64
112
119
65
0
69
156
90
96
94
86
94
57
112
93
118
83
85
64
107
79
68
38
56
80
103
103
111
185
95
120
75
98
71
37
136
233
47
73
82
107
58
94
151
